robust/generate/spp_dkp_Lefebvre_et_al_2026/src/shortest_path_6_9.kp
51
107

[3.01 0.2 1.53 2.87 1.27 4.23 0.7 1.73 2.63 2.17 0.78 0.97 2.88 1.11 1.83 0.21 1.44 1.3 1.99 0.27 3.36 3.25 2.52 3.18]

[6 63 43 43 45 77 26 13 27 46 96 10 16 62 98 76 56 39 61 83 58 4 54 84]
