robust/generate/spp_dkp_Lefebvre_et_al_2026/src/shortest_path_6_9.lp
\ Model sp_6_9
\ LP format - for model browsing. Use MPS format to capture full model detail.
\ Signature: 0x1a3fed327f855427
Minimize
  58.8 y[0,1] + 35 y[0,2] + 50.45 y[0,3] + 19.92 y[0,4] + 40.31 y[0,5]
   + 58.8 y[1,0] + 40.02 y[1,2] + 12 y[1,3] + 53.85 y[1,4] + 35 y[2,0]
   + 40.02 y[2,1] + 39.12 y[2,3] + 45.19 y[2,4] + 50.45 y[3,0] + 12 y[3,1]
   + 39.12 y[3,2] + 42.94 y[3,4] + 19.92 y[4,0] + 53.85 y[4,1]
   + 45.19 y[4,2] + 42.94 y[4,3] + 24.7 y[4,5] + 40.31 y[5,0] + 24.7 y[5,4]
   + 5.88 r[0,1] + 3.5 r[0,2] + 5.045 r[0,3] + 1.992 r[0,4] + 4.031 r[0,5]
   + 5.88 r[1,0] + 4.002 r[1,2] + 1.2 r[1,3] + 5.385 r[1,4] + 3.5 r[2,0]
   + 4.002 r[2,1] + 3.912 r[2,3] + 4.519 r[2,4] + 5.045 r[3,0] + 1.2 r[3,1]
   + 3.912 r[3,2] + 4.294 r[3,4] + 1.992 r[4,0] + 5.385 r[4,1]
   + 4.519 r[4,2] + 4.294 r[4,3] + 2.47 r[4,5] + 4.031 r[5,0] + 2.47 r[5,4]
Subject To
 flow_cons_inner_nodes[0]: - y[0,1] - y[0,2] - y[0,3] - y[0,4] - y[0,5]
   + y[1,0] + y[2,0] + y[3,0] + y[4,0] + y[5,0] = 0
 flow_cons_inner_nodes[2]: y[0,2] + y[1,2] - y[2,0] - y[2,1] - y[2,3]
   - y[2,4] + y[3,2] + y[4,2] = 0
 flow_cons_inner_nodes[3]: y[0,3] + y[1,3] + y[2,3] - y[3,0] - y[3,1]
   - y[3,2] - y[3,4] + y[4,3] = 0
 flow_cons_inner_nodes[4]: y[0,4] + y[1,4] + y[2,4] + y[3,4] - y[4,0]
   - y[4,1] - y[4,2] - y[4,3] - y[4,5] + y[5,4] = 0
 flow_cons_source: - y[0,1] + y[1,0] + y[1,2] + y[1,3] + y[1,4] - y[2,1]
   - y[3,1] - y[4,1] = 1
 flow_cons_target: y[0,5] + y[4,5] - y[5,0] - y[5,4] = 1
 primal_lower: - 3.01 y[0,1] - 0.2 y[0,2] - 1.53 y[0,3] - 2.87 y[0,4]
   - 1.27 y[0,5] - 4.23 y[1,0] - 0.7 y[1,2] - 1.73 y[1,3] - 2.63 y[1,4]
   - 2.17 y[2,0] - 0.78 y[2,1] - 0.97 y[2,3] - 2.88 y[2,4] - 1.11 y[3,0]
   - 1.83 y[3,1] - 0.21 y[3,2] - 1.44 y[3,4] - 1.3 y[4,0] - 1.99 y[4,1]
   - 0.27 y[4,2] - 3.36 y[4,3] - 3.25 y[4,5] - 2.52 y[5,0] - 3.18 y[5,4]
   + 6 u[0,1] + 63 u[0,2] + 43 u[0,3] + 43 u[0,4] + 45 u[0,5] + 77 u[1,0]
   + 26 u[1,2] + 13 u[1,3] + 27 u[1,4] + 46 u[2,0] + 96 u[2,1] + 10 u[2,3]
   + 16 u[2,4] + 62 u[3,0] + 98 u[3,1] + 76 u[3,2] + 56 u[3,4] + 39 u[4,0]
   + 61 u[4,1] + 83 u[4,2] + 58 u[4,3] + 4 u[4,5] + 54 u[5,0] + 84 u[5,4]
   <= 107
 mccormick1[0,1]: - u[0,1] + r[0,1] <= 0
 mccormick1[0,2]: - u[0,2] + r[0,2] <= 0
 mccormick1[0,3]: - u[0,3] + r[0,3] <= 0
 mccormick1[0,4]: - u[0,4] + r[0,4] <= 0
 mccormick1[0,5]: - u[0,5] + r[0,5] <= 0
 mccormick1[1,0]: - u[1,0] + r[1,0] <= 0
 mccormick1[1,2]: - u[1,2] + r[1,2] <= 0
 mccormick1[1,3]: - u[1,3] + r[1,3] <= 0
 mccormick1[1,4]: - u[1,4] + r[1,4] <= 0
 mccormick1[2,0]: - u[2,0] + r[2,0] <= 0
 mccormick1[2,1]: - u[2,1] + r[2,1] <= 0
 mccormick1[2,3]: - u[2,3] + r[2,3] <= 0
 mccormick1[2,4]: - u[2,4] + r[2,4] <= 0
 mccormick1[3,0]: - u[3,0] + r[3,0] <= 0
 mccormick1[3,1]: - u[3,1] + r[3,1] <= 0
 mccormick1[3,2]: - u[3,2] + r[3,2] <= 0
 mccormick1[3,4]: - u[3,4] + r[3,4] <= 0
 mccormick1[4,0]: - u[4,0] + r[4,0] <= 0
 mccormick1[4,1]: - u[4,1] + r[4,1] <= 0
 mccormick1[4,2]: - u[4,2] + r[4,2] <= 0
 mccormick1[4,3]: - u[4,3] + r[4,3] <= 0
 mccormick1[4,5]: - u[4,5] + r[4,5] <= 0
 mccormick1[5,0]: - u[5,0] + r[5,0] <= 0
 mccormick1[5,4]: - u[5,4] + r[5,4] <= 0
 mccormick2[0,1]: - y[0,1] + r[0,1] <= 0
 mccormick2[0,2]: - y[0,2] + r[0,2] <= 0
 mccormick2[0,3]: - y[0,3] + r[0,3] <= 0
 mccormick2[0,4]: - y[0,4] + r[0,4] <= 0
 mccormick2[0,5]: - y[0,5] + r[0,5] <= 0
 mccormick2[1,0]: - y[1,0] + r[1,0] <= 0
 mccormick2[1,2]: - y[1,2] + r[1,2] <= 0
 mccormick2[1,3]: - y[1,3] + r[1,3] <= 0
 mccormick2[1,4]: - y[1,4] + r[1,4] <= 0
 mccormick2[2,0]: - y[2,0] + r[2,0] <= 0
 mccormick2[2,1]: - y[2,1] + r[2,1] <= 0
 mccormick2[2,3]: - y[2,3] + r[2,3] <= 0
 mccormick2[2,4]: - y[2,4] + r[2,4] <= 0
 mccormick2[3,0]: - y[3,0] + r[3,0] <= 0
 mccormick2[3,1]: - y[3,1] + r[3,1] <= 0
 mccormick2[3,2]: - y[3,2] + r[3,2] <= 0
 mccormick2[3,4]: - y[3,4] + r[3,4] <= 0
 mccormick2[4,0]: - y[4,0] + r[4,0] <= 0
 mccormick2[4,1]: - y[4,1] + r[4,1] <= 0
 mccormick2[4,2]: - y[4,2] + r[4,2] <= 0
 mccormick2[4,3]: - y[4,3] + r[4,3] <= 0
 mccormick2[4,5]: - y[4,5] + r[4,5] <= 0
 mccormick2[5,0]: - y[5,0] + r[5,0] <= 0
 mccormick2[5,4]: - y[5,4] + r[5,4] <= 0
 mccormick3[0,1]: - y[0,1] - u[0,1] + r[0,1] >= -1
 mccormick3[0,2]: - y[0,2] - u[0,2] + r[0,2] >= -1
 mccormick3[0,3]: - y[0,3] - u[0,3] + r[0,3] >= -1
 mccormick3[0,4]: - y[0,4] - u[0,4] + r[0,4] >= -1
 mccormick3[0,5]: - y[0,5] - u[0,5] + r[0,5] >= -1
 mccormick3[1,0]: - y[1,0] - u[1,0] + r[1,0] >= -1
 mccormick3[1,2]: - y[1,2] - u[1,2] + r[1,2] >= -1
 mccormick3[1,3]: - y[1,3] - u[1,3] + r[1,3] >= -1
 mccormick3[1,4]: - y[1,4] - u[1,4] + r[1,4] >= -1
 mccormick3[2,0]: - y[2,0] - u[2,0] + r[2,0] >= -1
 mccormick3[2,1]: - y[2,1] - u[2,1] + r[2,1] >= -1
 mccormick3[2,3]: - y[2,3] - u[2,3] + r[2,3] >= -1
 mccormick3[2,4]: - y[2,4] - u[2,4] + r[2,4] >= -1
 mccormick3[3,0]: - y[3,0] - u[3,0] + r[3,0] >= -1
 mccormick3[3,1]: - y[3,1] - u[3,1] + r[3,1] >= -1
 mccormick3[3,2]: - y[3,2] - u[3,2] + r[3,2] >= -1
 mccormick3[3,4]: - y[3,4] - u[3,4] + r[3,4] >= -1
 mccormick3[4,0]: - y[4,0] - u[4,0] + r[4,0] >= -1
 mccormick3[4,1]: - y[4,1] - u[4,1] + r[4,1] >= -1
 mccormick3[4,2]: - y[4,2] - u[4,2] + r[4,2] >= -1
 mccormick3[4,3]: - y[4,3] - u[4,3] + r[4,3] >= -1
 mccormick3[4,5]: - y[4,5] - u[4,5] + r[4,5] >= -1
 mccormick3[5,0]: - y[5,0] - u[5,0] + r[5,0] >= -1
 mccormick3[5,4]: - y[5,4] - u[5,4] + r[5,4] >= -1
Bounds
Binaries
 y[0,1] y[0,2] y[0,3] y[0,4] y[0,5] y[1,0] y[1,2] y[1,3] y[1,4] y[2,0]
 y[2,1] y[2,3] y[2,4] y[3,0] y[3,1] y[3,2] y[3,4] y[4,0] y[4,1] y[4,2]
 y[4,3] y[4,5] y[5,0] y[5,4] u[0,1] u[0,2] u[0,3] u[0,4] u[0,5] u[1,0]
 u[1,2] u[1,3] u[1,4] u[2,0] u[2,1] u[2,3] u[2,4] u[3,0] u[3,1] u[3,2]
 u[3,4] u[4,0] u[4,1] u[4,2] u[4,3] u[4,5] u[5,0] u[5,4] r[0,1] r[0,2]
 r[0,3] r[0,4] r[0,5] r[1,0] r[1,2] r[1,3] r[1,4] r[2,0] r[2,1] r[2,3]
 r[2,4] r[3,0] r[3,1] r[3,2] r[3,4] r[4,0] r[4,1] r[4,2] r[4,3] r[4,5]
 r[5,0] r[5,4]
End
